<number of tasks>
20


<number of equipment>
5


<cycle time>
1000


<investment costs>
1,19384
2,9715
3,28337
4,20554
5,24929


<task times>
1,-1,321,94,172,-1
2,193,-1,84,183,-1
3,-1,292,58,173,-1
4,-1,243,49,84,-1
5,183,-1,82,161,-1
6,-1,-1,-1,145,107
7,168,-1,63,176,-1
8,195,-1,84,179,-1
9,186,-1,108,177,-1
10,-1,375,159,301,-1
11,-1,183,40,153,-1
12,-1,-1,-1,172,113
13,178,-1,56,168,-1
14,-1,332,87,206,-1
15,203,-1,63,189,-1
16,-1,292,82,170,-1
17,-1,-1,-1,128,70
18,-1,321,56,197,-1
19,-1,225,69,162,-1
20,-1,162,54,136,-1


<precedence relations>
1,12
2,7
2,8
3,8
4,5
4,6
4,11
4,13
5,12
6,12
7,9
7,11
7,13
7,14
8,10
9,12
10,12
10,13
10,14
11,12
12,15
12,16
12,17
12,18
13,19
15,19
15,20
17,20


<task types>
1,3
2,2
3,3
4,3
5,2
6,1
7,2
8,2
9,2
10,3
11,3
12,1
13,2
14,3
15,2
16,3
17,1
18,3
19,3
20,3


<line depot>
1,0
2,0
3,2
4,2
5,0


<processing costs>
1,7200
2,7200
3,14400
4,21600
5,7200


<saving costs>
1,1938
2,971
3,2833
4,2055
5,2492


<end>
